NAME          ClpDefau
ROWS
 N  OBJROW
 L  R_124_0
 L  R_124_1
 L  R_124_2
 L  R_124_3
 L  R_124_4
 L  R_124_5
 L  R_124_6
 L  R_124_7
 L  R_124_8
 L  R_124_9
 L  R_124_10
 L  R_124_11
 L  R_124_12
 L  R_124_13
 L  R_124_14
 L  R_124_15
COLUMNS
    x_0       OBJROW     -1.           R_124_1   3.          
    x_1       OBJROW     -2.           R_124_1   3.          
    x_1       R_124_3   6.             R_124_4   9.          
    x_1       R_124_8   8.          
    x_2       OBJROW     -2.           R_124_1   7.          
    x_3       OBJROW     -6.           R_124_4   10.         
    x_4       OBJROW     -3.           R_124_3   6.          
    x_4       R_124_6   2.             R_124_7   1.          
    x_4       R_124_11  9.             R_124_12  5.          
    x_5       OBJROW     -5.           R_124_2   6.          
    x_5       R_124_5   2.             R_124_7   1.          
    x_5       R_124_9   3.             R_124_12  10.         
    x_5       R_124_13  4.             R_124_14  1.          
    x_5       R_124_15  10.         
    x_6       OBJROW     -5.           R_124_7   5.          
    x_6       R_124_15  8.          
    x_7       OBJROW     -10.          R_124_15  3.          
RHS
    RHS       R_124_0   8.             R_124_1   9.          
    RHS       R_124_2   10.            R_124_3   8.          
    RHS       R_124_4   10.            R_124_5   10.         
    RHS       R_124_6   8.             R_124_7   8.          
    RHS       R_124_8   8.             R_124_9   10.         
    RHS       R_124_10  9.             R_124_11  8.          
    RHS       R_124_12  9.             R_124_13  8.          
    RHS       R_124_14  10.            R_124_15  8.          
BOUNDS
 UI BOUND     x_0       10.         
 UI BOUND     x_1       10.         
 UI BOUND     x_2       10.         
 UI BOUND     x_3       10.         
 UI BOUND     x_4       10.         
 UI BOUND     x_5       10.         
 UI BOUND     x_6       10.         
 UI BOUND     x_7       10.         
ENDATA
